(set-logic AUFLIA)
(declare-fun P (Int Int Int Int Int) Bool)
(assert 
  (exists ((x Int))
    (exists ((y Int))
      (exists ((z Int))
        (not(exists ((w Int))
          (=> (not (exists((q Int))(P x y z w q))) (P x y z w w))
        ))
      )
    )
  )
)
(check-sat)